c description: Random 3-CNF over 3 variables and 1 clauses
c generator: CNFgen (0.9.0)
c copyright: (C) 2012-2020 Massimo Lauria <massimo.lauria@uniroma1.it>
c url: https://massimolauria.net/cnfgen
c command line: cnfgen -o ./sat_database/yes/tiny/3/cnf.cnf randkcnf 3 3 1
c
p cnf 3 1
-1 2 3 0
